354296
116 64 98 16 14 27 22 68 29 87 66 11 1 110 33 125 75 53 2 3 74 4 119 80 77 28 24 20 55 81 120 103 115 69 126 86 65 91 17 78 79 83 13 124 51 70 54 90 101 113 109 84 56 19 72 58 7 10 15 92 93 63 12 5 71 0 102 94 117 100 60 42 38 67 21 23 48 26 18 6 9 8 47 85 39 46 32 31 107 89 112 108 25 37 122 104 105 121 123 73 106 88 114 111 45 44 82 43 59 118 40 57 52 99 61 50 62 49 36 30 34 35 95 97 96 76 41 
